x = 22;
y = 19;
c = 71;
n = 42;

p = [26  19  72  90  58  35  60  48  10  47  65  14  36  100  68  86  50  94  69  91  19  55  10  97  88  49  56  45  19  86  91  28  28  30  85  32  60  26  84  48  42  94];
w = [3  1  7  6  4  5  9  10  9  7  7  10  9  6  5  5  5  2  5  7  5  5  7  5  1  1  1  10  3  4  5  1  4  8  4  2  3  9  3  4  7  3];
s = [12  6  3  2  2  3  2  5  8  7  4  3  16  18  5  4  6  15  16  1  10  9  1  4  7  10  3  13  14  3  17  1  15  9  9  2  17  2  10  4  3  4];
